NAME: TestCVRP
TYPE: CVRP
COMMENT: Test TSP file problem with full Matrix distance or duration
DIMENSION: 4
CAPACITY: 30
EDGE_WEIGHT_TYPE: EXPLICIT
EDGE_WEIGHT_FORMAT: FULL_MATRIX
EDGE_WEIGHT_SECTION 
0 1519.4 1565.6 2296.4 
1435.5 0 2857.7 3089.1 
1780.3 3013.6 0 1213.5 
1826.1 2649.8 1469.1 0

DEMAND_SECTION 
1	0
2	20
3	20
4	10

DEPOT_SECTION 
1
-1
EOF